sat
(
(define-fun R () String "baa")
(define-fun K () String "")
(define-fun H () String "b")
(define-fun G () String "")
(define-fun F () String "")
(define-fun L () String "")
(define-fun M () String "")
(define-fun Q () String "")
)
